cases/matpower/case5_pwlc.m
ipopt
ACP
[warn | PowerModels]: added zero cost function data for dclines
[warn | PowerModels]: the from bus voltage setpoint on dc line 1 does not match the value at bus 1
[warn | PowerModels]: the to bus voltage setpoint on dc line 1 does not match the value at bus 10
[warn | PowerModels]: exending the pwl costs model on generator 4 by -0.23 to include the minimum active power value 0.0
[warn | PowerModels]: exending the pwl costs model on generator 4 by 1.4599999999999997 to include the maximum active power value 2.0
[warn | PowerModels]: exending the pwl costs model on generator 1 by 0.40800000000000003 to include the maximum active power value 0.4
[warn | PowerModels]: simplifying pwl cost on generator 1, [-0.001, 0.0, 0.0, 0.0, 0.001, 0.0, 0.41000000000000003, 0.0] -> [-0.001, 0.0, 0.41000000000000003, 0.0]
[warn | PowerModels]: exending the pwl costs model on generator 5 by -0.08 to include the minimum active power value 0.0
[warn | PowerModels]: exending the pwl costs model on generator 5 by 5.91 to include the maximum active power value 6.0
[warn | PowerModels]: exending the pwl costs model on generator 2 by 0.20999999999999996 to include the maximum active power value 1.7
[warn | PowerModels]: simplifying pwl cost on generator 2, [0.0, 841.0, 0.2, 841.0, 1.0, 841.0, 1.71, 841.0] -> [0.0, 841.0, 1.71, 841.0]
[warn | PowerModels]: exending the pwl costs model on generator 3 by -1.71 to include the minimum active power value 0.0
[warn | PowerModels]: exending the pwl costs model on generator 3 by 1.6600000000000001 to include the maximum active power value 5.2

******************************************************************************
This program contains Ipopt, a library for large-scale nonlinear optimization.
 Ipopt is released as open source code under the Eclipse Public License (EPL).
         For more information visit http://projects.coin-or.org/Ipopt
******************************************************************************

This is Ipopt version 3.13.2, running with linear solver mumps.
NOTE: Other linear solvers might be more efficient (see Ipopt documentation).

Number of nonzeros in equality constraint Jacobian...:      202
Number of nonzeros in inequality constraint Jacobian.:       48
Number of nonzeros in Lagrangian Hessian.............:      264

Total number of variables............................:       66
                     variables with only lower bounds:        0
                variables with lower and upper bounds:       61
                     variables with only upper bounds:        0
Total number of equality constraints.................:       48
Total number of inequality constraints...............:       24
        inequality constraints with only lower bounds:        6
   inequality constraints with lower and upper bounds:        0
        inequality constraints with only upper bounds:       18

iter    objective    inf_pr   inf_du lg(mu)  ||d||  lg(rg) alpha_du alpha_pr  ls
   0  2.3089486e+03 3.99e+00 6.59e+00  -1.0 0.00e+00    -  0.00e+00 0.00e+00   0
   1  6.9232633e+03 3.79e+00 1.40e+01  -1.0 2.85e+00    -  3.58e-03 5.00e-02h  1
   2  8.8652660e+03 3.56e+00 1.31e+01  -1.0 5.52e+00    -  3.21e-02 6.01e-02f  1
   3  9.3678390e+03 3.18e+00 1.17e+01  -1.0 5.80e+00    -  1.48e-01 1.09e-01f  1
   4  1.1468763e+04 2.88e+00 2.54e+01  -1.0 4.26e+00    -  5.04e-01 9.21e-02h  1
   5  4.1874561e+04 8.96e-02 3.07e+01  -1.0 3.69e+00    -  3.34e-01 9.69e-01h  1
   6  4.4355159e+04 2.83e-03 1.82e+01  -1.0 1.91e+00    -  3.40e-01 9.68e-01h  1
   7  4.6274268e+04 3.52e-04 6.15e+01  -1.0 5.38e-01    -  2.28e-01 1.00e+00f  1
   8  4.5349152e+04 1.65e-04 5.30e-04  -1.0 5.73e-01    -  1.00e+00 1.00e+00h  1
   9  4.3112381e+04 4.67e-04 4.76e-01  -2.5 2.26e-01    -  9.18e-01 8.11e-01f  1
iter    objective    inf_pr   inf_du lg(mu)  ||d||  lg(rg) alpha_du alpha_pr  ls
  10  4.2982514e+04 1.98e-02 2.22e+00  -2.5 6.25e-01    -  9.49e-01 1.00e+00h  1
  11  4.2956738e+04 1.04e-02 1.16e-02  -2.5 2.31e-01    -  1.00e+00 1.00e+00h  1
  12  4.2958734e+04 1.07e-05 1.29e-05  -2.5 2.24e-02    -  1.00e+00 1.00e+00h  1
  13  4.2904946e+04 1.07e-02 3.83e-01  -3.8 3.52e-01    -  8.97e-01 9.81e-01h  1
  14  4.2898679e+04 2.11e-03 1.33e-03  -3.8 1.85e-01    -  1.00e+00 1.00e+00h  1
  15  4.2898835e+04 5.04e-05 4.12e-05  -3.8 7.04e-02    -  1.00e+00 1.00e+00h  1
  16  4.2898843e+04 1.08e-06 9.97e-07  -3.8 1.13e-02    -  1.00e+00 1.00e+00h  1
  17  4.2895757e+04 1.80e-04 7.67e-03  -5.7 9.30e-02    -  8.09e-01 8.50e-01h  1
  18  4.2895185e+04 6.18e-06 1.82e-02  -5.7 5.27e-02    -  7.76e-01 1.00e+00h  1
  19  4.2895174e+04 1.14e-06 3.53e-06  -5.7 2.31e-02    -  1.00e+00 1.00e+00h  1
iter    objective    inf_pr   inf_du lg(mu)  ||d||  lg(rg) alpha_du alpha_pr  ls
  20  4.2895174e+04 2.71e-07 8.78e-07  -5.7 1.13e-02    -  1.00e+00 1.00e+00h  1
  21  4.2895175e+04 1.33e-08 4.32e-08  -5.7 2.51e-03    -  1.00e+00 1.00e+00h  1
  22  4.2895132e+04 2.44e-07 1.47e-04  -8.6 1.01e-02    -  9.34e-01 9.45e-01h  1
  23  4.2895130e+04 4.33e-08 1.34e-07  -8.6 4.38e-03    -  1.00e+00 1.00e+00h  1
  24  4.2895130e+04 2.63e-09 8.56e-09  -8.6 1.11e-03    -  1.00e+00 1.00e+00h  1

Number of Iterations....: 24

                                   (scaled)                 (unscaled)
Objective...............:   2.3039230318760126e+01    4.2895130184377129e+04
Dual infeasibility......:   8.5648133030247209e-09    1.5946226351970502e-05
Constraint violation....:   1.6988799991457526e-09    2.6282178204606321e-09
Complementarity.........:   7.4420086781636056e-09    1.3855755017265334e-05
Overall NLP error.......:   8.5648133030247209e-09    1.5946226351970502e-05


Number of objective function evaluations             = 25
Number of objective gradient evaluations             = 25
Number of equality constraint evaluations            = 25
Number of inequality constraint evaluations          = 25
Number of equality constraint Jacobian evaluations   = 25
Number of inequality constraint Jacobian evaluations = 25
Number of Lagrangian Hessian evaluations             = 24
Total CPU secs in IPOPT (w/o function evaluations)   =      1.286
Total CPU secs in NLP function evaluations           =      2.294

EXIT: Optimal Solution Found.
Time to Solution........:4.304050922393799
